p cnf 38 297
-1 -8 0
-1 -15 0
-1 -19 0
-1 -2 0
-1 -3 0
-1 -4 0
-1 -5 0
-1 -6 0
-2 -9 0
-2 -16 0
-2 -20 0
-2 -24 0
-2 -30 0
-2 -35 0
-2 -1 0
-2 -3 0
-2 -4 0
-2 -5 0
-2 -6 0
-3 -10 0
-3 -17 0
-3 -21 0
-3 -25 0
-3 -2 0
-3 -1 0
-3 -4 0
-3 -5 0
-3 -6 0
-4 -11 0
-4 -3 0
-4 -2 0
-4 -1 0
-4 -5 0
-4 -6 0
-5 -12 0
-5 -18 0
-5 -4 0
-5 -3 0
-5 -2 0
-5 -1 0
-5 -6 0
-6 -13 0
-6 -5 0
-6 -4 0
-6 -3 0
-6 -2 0
-6 -1 0
-7 -14 0
-7 -8 0
-7 -9 0
-7 -10 0
-7 -11 0
-7 -12 0
-7 -13 0
-8 -1 0
-8 -15 0
-8 -19 0
-8 -7 0
-8 -9 0
-8 -10 0
-8 -11 0
-8 -12 0
-8 -13 0
-9 -2 0
-9 -16 0
-9 -20 0
-9 -24 0
-9 -30 0
-9 -35 0
-9 -8 0
-9 -7 0
-9 -10 0
-9 -11 0
-9 -12 0
-9 -13 0
-10 -3 0
-10 -17 0
-10 -21 0
-10 -25 0
-10 -9 0
-10 -8 0
-10 -7 0
-10 -11 0
-10 -12 0
-10 -13 0
-11 -4 0
-11 -10 0
-11 -9 0
-11 -8 0
-11 -7 0
-11 -12 0
-11 -13 0
-12 -5 0
-12 -18 0
-12 -11 0
-12 -10 0
-12 -9 0
-12 -8 0
-12 -7 0
-12 -13 0
-13 -6 0
-13 -12 0
-13 -11 0
-13 -10 0
-13 -9 0
-13 -8 0
-13 -7 0
-14 -7 0
-14 -15 0
-14 -16 0
-14 -17 0
-15 -8 0
-15 -1 0
-15 -19 0
-15 -14 0
-15 -16 0
-15 -17 0
-16 -9 0
-16 -2 0
-16 -20 0
-16 -24 0
-16 -30 0
-16 -35 0
-16 -15 0
-16 -14 0
-16 -17 0
-17 -10 0
-17 -3 0
-17 -21 0
-17 -25 0
-17 -16 0
-17 -15 0
-17 -14 0
-18 -12 0
-18 -5 0
-19 -15 0
-19 -8 0
-19 -1 0
-19 -20 0
-19 -21 0
-19 -22 0
-20 -16 0
-20 -9 0
-20 -2 0
-20 -24 0
-20 -30 0
-20 -35 0
-20 -19 0
-20 -21 0
-20 -22 0
-21 -17 0
-21 -10 0
-21 -3 0
-21 -25 0
-21 -20 0
-21 -19 0
-21 -22 0
-22 -26 0
-22 -31 0
-22 -21 0
-22 -20 0
-22 -19 0
-24 -20 0
-24 -16 0
-24 -9 0
-24 -2 0
-24 -30 0
-24 -35 0
-24 -25 0
-24 -26 0
-24 -27 0
-24 -28 0
-25 -21 0
-25 -17 0
-25 -10 0
-25 -3 0
-25 -24 0
-25 -26 0
-25 -27 0
-25 -28 0
-26 -22 0
-26 -31 0
-26 -25 0
-26 -24 0
-26 -27 0
-26 -28 0
-27 -32 0
-27 -37 0
-27 -26 0
-27 -25 0
-27 -24 0
-27 -28 0
-28 -27 0
-28 -26 0
-28 -25 0
-28 -24 0
-29 -34 0
-29 -30 0
-30 -24 0
-30 -20 0
-30 -16 0
-30 -9 0
-30 -2 0
-30 -35 0
-30 -29 0
-31 -26 0
-31 -22 0
-31 -32 0
-32 -27 0
-32 -37 0
-32 -31 0
-33 -34 0
-33 -35 0
-33 -36 0
-34 -29 0
-34 -33 0
-34 -35 0
-34 -36 0
-35 -30 0
-35 -24 0
-35 -20 0
-35 -16 0
-35 -9 0
-35 -2 0
-35 -34 0
-35 -33 0
-35 -36 0
-36 -35 0
-36 -34 0
-36 -33 0
-37 -32 0
-37 -27 0
-37 -38 0
-38 -37 0
1 8 15 19 2 3 4 5 6 0
2 9 16 20 24 30 35 1 3 4 5 6 0
3 10 17 21 25 2 1 4 5 6 0
4 11 3 2 1 5 6 0
5 12 18 4 3 2 1 6 0
6 13 5 4 3 2 1 0
7 14 8 9 10 11 12 13 0
8 1 15 19 7 9 10 11 12 13 0
9 2 16 20 24 30 35 8 7 10 11 12 13 0
10 3 17 21 25 9 8 7 11 12 13 0
11 4 10 9 8 7 12 13 0
12 5 18 11 10 9 8 7 13 0
13 6 12 11 10 9 8 7 0
14 7 15 16 17 0
15 8 1 19 14 16 17 0
16 9 2 20 24 30 35 15 14 17 0
17 10 3 21 25 16 15 14 0
18 12 5 0
19 15 8 1 20 21 22 0
20 16 9 2 24 30 35 19 21 22 0
21 17 10 3 25 20 19 22 0
22 26 31 21 20 19 0
23 0
24 20 16 9 2 30 35 25 26 27 28 0
25 21 17 10 3 24 26 27 28 0
26 22 31 25 24 27 28 0
27 32 37 26 25 24 28 0
28 27 26 25 24 0
29 34 30 0
30 24 20 16 9 2 35 29 0
31 26 22 32 0
32 27 37 31 0
33 34 35 36 0
34 29 33 35 36 0
35 30 24 20 16 9 2 34 33 36 0
36 35 34 33 0
37 32 27 38 0
38 37 0
11 22 17 18 0
-11 -22 0
-11 -17 0
-11 -18 0
-22 -17 0
-22 -18 0
-17 -18 0
-23 0
-33 0
-29 0
-23 0
-33 0
-29 0
25 36 30 0
25 36 31 0
25 30 31 0
36 30 31 0
-25 -36 -30 0
-25 -36 -31 0
-25 -30 -31 0
-36 -30 -31 0
28 38 0
28 32 0
38 32 0
-28 -38 -32 0
